p cnf 927 2428
c ind 918 900 819 911 920 919 912 821 924 921 0
c ind 903 905 907 837 909 922 923 925 833 834 0
c ind 854 868 855 873 902 915 916 906 898 910 0
c ind 870 917 827 822 826 901 914 824 869 823 0
c ind 836 825 913 904 888 897 908 858 861 842 0
c ind 886 874 884 881 843 871 883 890 882 885 0
c ind 887 891 892 895 894 889 877 865 866 862 0
c ind 896 848 859 872 880 893 899 850 867 841 0
c ind 845 849 875 838 828 860 840 863 879 864 0
c ind 832 847 856 878 835 844 853 831 846 851 0
c ind 876 829 830 852 839 857 820 1 0
c ret 567 697 698 699 700 701 702 703 568 704 0
c ret 705 706 707 708 709 609 710 610 711 712 0
c ret 713 714 569 715 716 611 717 718 719 720 0
c ret 721 570 722 723 724 725 726 727 612 728 0
c ret 613 729 730 731 732 733 571 734 735 736 0
c ret 737 738 739 740 741 742 743 572 573 614 0
c ret 574 744 745 746 747 615 748 749 750 616 0
c ret 751 752 753 754 755 756 575 617 757 758 0
c ret 759 760 761 762 576 763 764 765 766 767 0
c ret 559 577 768 769 770 771 578 772 773 774 0
c ret 618 619 775 620 776 777 579 778 779 780 0
c ret 781 782 783 784 785 786 787 580 788 789 0
c ret 790 791 621 792 793 794 795 796 797 798 0
c ret 799 800 581 801 622 802 803 804 805 806 0
c ret 807 808 582 809 810 811 812 813 814 623 0
c ret 815 816 817 818 583 624 625 560 584 585 0
c ret 626 627 628 629 586 630 631 632 587 633 0
c ret 588 634 635 636 589 637 590 638 639 640 0
c ret 561 591 641 642 643 592 644 645 646 647 0
c ret 648 593 649 594 595 650 596 562 597 651 0
c ret 652 598 653 599 600 654 655 601 656 657 0
c ret 602 563 658 659 660 661 662 663 664 665 0
c ret 666 564 667 668 669 670 671 672 673 674 0
c ret 675 676 677 603 678 565 604 679 680 605 0
c ret 681 682 606 683 684 685 686 687 566 688 0
c ret 689 607 690 691 608 692 693 694 695 696 0
2 3 -224 -753 0
2 3 -200 -224 0
-2 224 0
-2 -3 0
-2 200 753 0
3 187 -563 0
3 4 161 187 0
-3 -187 0
-3 -4 563 0
-3 -161 563 0
4 -5 740 0
4 -110 -150 740 0
-4 -740 0
-4 5 150 0
-4 5 110 0
5 -70 741 0
5 6 -69 741 0
-5 -741 0
-5 -6 70 0
-5 69 70 0
6 -658 -743 0
6 7 -743 0
6 68 -743 0
-6 743 0
-6 -7 -68 658 0
7 -8 -38 573 0
7 -8 -37 -38 0
-7 38 0
-7 8 0
-7 37 -573 0
8 -9 20 -33 0
8 -10 20 -33 0
-8 33 0
-8 -20 0
-8 9 10 0
9 573 592 0
-9 -573 0
-9 -592 0
10 -13 -573 0
10 11 573 0
-10 -11 573 0
-10 13 -573 0
11 -591 -612 0
11 -12 -612 0
-11 612 0
-11 12 591 0
12 -584 -585 -613 0
-12 584 0
-12 585 0
-12 613 0
11 13 14 0
13 -14 641 0
-11 -13 14 0
-13 -14 -641 0
14 15 592 0
-14 -592 0
-14 -15 0
15 16 -642 0
-15 642 0
-15 -16 0
16 17 645 0
16 17 646 0
-16 -17 0
-16 -645 -646 0
17 18 -19 592 642 0
-17 19 0
-17 -18 0
-17 -592 0
-17 -642 0
18 593 602 -649 0
-18 649 0
-18 -602 0
-18 -593 0
19 -643 645 646 0
-19 643 0
-19 -646 0
-19 -645 0
20 21 573 0
20 -26 573 0
-20 -573 0
-20 -21 26 0
21 22 23 0
21 22 583 0
-21 -22 0
-21 -23 -583 0
22 -618 619 -620 0
-22 618 0
-22 -619 0
-22 620 0
23 24 581 0
23 24 603 604 0
-23 -24 0
-23 -581 -604 0
-23 -581 -603 0
24 25 582 -603 -604 0
-24 -582 0
-24 -25 0
-24 604 0
-24 603 0
25 -605 -606 0
-25 605 0
-25 606 0
26 -27 29 0
-26 27 0
-26 -29 0
27 -28 634 0
-27 -634 0
-27 28 0
28 -610 629 0
28 610 628 0
-28 610 -628 0
-28 -610 -629 0
29 -30 627 0
-29 -627 0
-29 30 0
30 -32 599 0
30 -32 -610 0
30 31 -32 0
-30 32 0
-30 -31 -599 610 0
31 629 631 632 -633 0
-31 633 0
-31 -632 0
-31 -629 0
-31 -631 0
32 631 632 0
32 610 629 0
32 629 632 0
32 610 631 0
-32 -629 -631 0
-32 -610 -632 0
33 35 -655 0
33 -34 35 0
-33 -35 0
-33 34 655 0
34 573 588 0
-34 -573 0
-34 -588 0
35 36 635 0
-35 -635 0
-35 -36 0
36 609 610 0
36 597 -610 0
-36 -609 610 0
-36 -597 -610 0
-13 37 -638 0
-13 37 588 0
13 -37 0
-37 -588 638 0
38 -39 -61 599 0
38 -39 59 -61 0
-38 61 0
-38 39 0
-38 -59 -599 0
39 -40 48 -50 -57 0
-39 57 0
-39 40 0
-39 50 0
-39 -48 0
40 43 -45 588 0
40 -41 43 -45 0
-40 45 0
-40 -43 0
-40 41 -588 0
41 -42 -589 -607 0
41 -42 -607 -608 0
-41 42 0
-41 607 0
-41 589 608 0
42 -587 590 0
42 586 -589 0
42 -587 -589 0
42 586 590 0
-42 589 -590 0
-42 -586 587 0
43 -44 -576 0
43 -576 578 -580 0
-43 576 0
-43 44 -578 0
-43 44 580 0
44 -575 577 -578 579 0
-44 578 0
-44 -579 0
-44 575 0
-44 -577 0
45 -46 592 0
45 -46 -595 0
45 -46 -584 0
-45 46 0
-45 584 -592 595 0
46 47 582 0
46 47 -581 0
46 47 583 0
-46 -47 0
-46 581 -582 -583 0
47 -588 623 0
47 -614 623 0
-47 -623 0
-47 588 614 0
48 49 596 0
36 48 596 -611 0
-48 -596 0
-48 -49 611 0
-36 -48 -49 0
49 597 601 0
49 598 601 0
-49 -601 0
-49 -597 -598 0
50 51 -52 -574 622 0
50 51 -52 574 -622 0
-50 52 0
-50 574 622 0
-50 -51 0
-50 -574 -622 0
51 593 602 0
-51 -593 0
-51 -602 0
52 -54 56 -591 0
52 53 -54 56 0
-52 54 0
-52 -56 0
-52 -53 591 0
53 584 -592 0
-53 -584 0
-53 592 0
54 -55 -601 -621 622 0
-54 55 0
-54 601 0
-54 621 0
-54 -622 0
55 588 600 0
55 -599 -614 0
55 588 -599 0
55 600 -614 0
-55 -588 614 0
-55 599 -600 0
56 584 593 0
56 -584 585 0
-56 -584 -585 0
-56 584 -593 0
-21 57 592 0
11 -21 57 58 0
21 -57 0
-57 -58 -592 0
-11 -57 -592 0
58 -584 -591 -593 594 0
-58 593 0
-58 -594 0
-58 584 0
-58 591 0
-28 -29 59 0
-29 59 -60 0
29 -59 0
28 -59 60 0
60 630 631 0
60 -610 631 0
60 598 610 -631 0
-60 -598 -631 0
-60 -610 -631 0
-60 610 -630 631 0
61 -62 -66 592 0
11 61 -62 -66 0
-61 66 0
-61 62 0
-11 -61 -592 0
27 62 -63 0
62 -63 599 0
-62 63 0
-27 -62 -599 0
36 63 64 -65 -635 0
-63 65 0
-63 -64 0
-63 635 0
-36 -63 0
64 -588 638 0
64 -638 655 0
64 -573 655 0
-64 588 -655 0
-64 -638 -655 0
-64 573 588 638 0
65 -626 -653 654 0
-65 626 0
-65 653 0
-65 -654 0
26 66 -635 0
26 66 -67 601 0
-26 -66 0
-66 -601 635 0
-66 67 635 0
-60 67 636 0
-67 -636 0
60 -67 0
68 572 -654 0
68 -572 654 0
-68 -572 -654 0
-68 572 654 0
69 742 -743 0
-39 69 626 742 0
-69 -742 0
-69 -626 743 0
39 -69 743 0
70 -71 683 -742 0
-70 71 0
-70 742 0
-70 -683 0
-7 71 -72 90 -103 0
-71 103 0
7 -71 0
-71 72 0
-71 -90 0
72 73 77 81 -87 0
-72 87 0
-72 -81 0
-72 -73 0
-72 -77 0
73 -74 -571 0
9 73 -74 0
-73 74 0
-9 -73 571 0
74 75 -571 0
10 74 75 0
-74 -75 0
-10 -74 571 0
-10 75 76 -571 0
75 -76 -571 666 0
-75 571 0
-75 -76 -666 0
10 -75 76 0
-9 15 76 0
9 -76 0
-15 -76 0
-22 77 -78 0
77 -78 -79 -583 0
-77 78 0
22 -77 79 0
22 -77 583 0
78 571 573 0
-78 -571 0
-78 -573 0
79 -571 674 0
79 -80 571 0
-79 -571 -674 0
-79 80 571 0
80 -573 650 0
-23 80 573 0
-80 -573 -650 0
23 -80 573 0
81 -82 571 0
-81 -571 0
-81 82 0
82 83 -86 0
-82 -83 0
-82 86 0
83 -85 652 659 0
83 84 -85 659 0
-83 85 0
-83 -659 0
-83 -84 -652 0
30 84 573 0
-84 -573 0
-30 -84 0
-28 85 573 0
-85 -573 0
28 -85 0
-85 86 660 0
86 652 660 0
-86 -660 0
85 -86 -652 0
87 -88 -680 0
87 -88 -89 0
-87 88 0
-87 89 680 0
88 -661 0
-36 88 -652 0
-36 88 662 0
36 -88 661 0
-88 652 661 -662 0
-34 89 571 0
-89 -571 0
34 -89 0
90 97 -571 0
90 91 94 97 0
-90 -97 0
-90 -91 571 0
-90 -94 571 0
91 573 667 673 0
91 92 -573 667 -673 0
-91 -573 673 0
-91 -92 -673 0
-91 -667 0
-91 573 -673 0
92 -93 -573 -670 0
92 -93 573 -671 0
-92 93 0
-92 -573 670 0
-92 573 671 0
93 620 -668 0
93 -668 -669 0
-93 668 0
-93 -620 669 0
-92 94 95 -573 -667 0
92 -94 0
-94 -95 0
-94 573 0
-94 667 0
-10 95 -96 661 0
-10 -83 95 -96 0
-95 96 0
10 -95 0
83 -95 -661 0
-80 96 672 0
-96 -672 0
80 -96 0
-75 97 -98 -100 -102 0
-97 102 0
75 -97 0
-97 100 0
-97 98 0
82 98 -661 0
82 98 -99 0
-82 -98 0
-98 99 661 0
-36 99 -652 0
99 652 662 0
-99 652 -662 0
36 -99 -652 0
100 101 -573 0
-21 100 101 0
-100 -101 0
21 -100 573 0
34 101 663 0
-101 -663 0
-34 -101 0
22 -88 102 573 0
88 -102 0
-22 -102 0
-102 -573 0
-8 77 -98 103 -104 0
-103 104 0
8 -103 0
98 -103 0
-77 -103 0
-27 -100 104 -105 0
83 -100 104 -105 0
-104 105 0
100 -104 0
27 -83 -104 0
99 105 106 -107 -109 0
-99 -105 0
-105 109 0
-105 107 0
-105 -106 0
36 106 661 0
-106 -661 0
-36 -106 0
107 -108 -680 0
107 -108 571 663 0
-107 108 0
-107 -663 680 0
-107 -571 680 0
-34 -68 108 0
-68 108 -663 0
68 -108 0
34 -108 663 0
109 -570 -658 -678 679 0
-109 678 0
-109 -679 0
-109 570 0
-109 658 0
-71 110 -111 134 148 0
-110 111 0
-110 -148 0
71 -110 0
-110 -134 0
111 112 118 -121 126 0
-111 -112 0
-111 -126 0
-111 121 0
-111 -118 0
9 112 113 0
112 113 -569 0
112 113 -571 0
-112 -113 0
-9 -112 569 571 0
113 -114 -569 0
74 113 569 0
-74 -113 569 0
-113 114 -569 0
74 114 115 0
114 -115 692 0
-74 -114 115 0
-114 -115 -692 0
115 -116 -117 0
-78 115 -116 642 0
-115 116 0
-115 117 -642 0
78 -115 117 0
-9 116 571 0
-116 -571 0
9 -116 0
-16 117 642 0
-16 117 592 0
16 -117 0
-117 -592 -642 0
-22 118 -119 0
118 -119 120 -583 0
-118 119 0
22 -118 -120 0
22 -118 583 0
119 569 571 573 0
-119 -569 0
-119 -573 0
-119 -571 0
120 -569 -697 0
79 120 569 0
-120 -569 697 0
-79 -120 569 0
121 123 -686 0
121 -122 123 0
-121 -123 0
-121 122 686 0
-36 122 -677 0
122 677 688 0
-122 677 -688 0
36 -122 -677 0
36 123 124 686 0
-123 -686 0
-123 -124 0
-36 -123 0
124 -125 687 0
-124 -687 0
-124 125 0
125 652 676 0
-125 -652 0
-125 -676 0
126 -127 130 0
-126 127 0
-126 -130 0
127 -128 569 0
-127 -569 0
-127 128 0
128 -129 685 0
128 677 685 0
-128 -685 0
-128 129 -677 0
-85 129 571 0
-125 129 -571 0
125 -129 -571 0
85 -129 571 0
130 133 677 684 0
130 -131 133 684 0
-130 -133 0
-130 -684 0
-130 131 -677 0
131 -571 677 0
131 -132 571 0
-131 -571 -677 0
-131 132 571 0
84 132 573 0
84 132 652 0
-84 -132 0
-132 -573 -652 0
125 129 133 0
-125 -133 0
-129 -133 0
114 134 -569 0
134 -135 142 0
134 142 -569 0
114 134 -135 0
-134 135 569 0
-114 -134 -142 0
135 136 141 0
74 135 136 -140 0
-135 -136 0
-74 -135 -141 0
-135 140 -141 0
-78 136 693 696 0
78 136 137 693 -696 0
-78 -136 -696 0
78 -136 -137 0
-136 -693 0
78 -136 696 0
-93 137 -138 0
93 -137 0
-137 138 0
138 -571 -694 0
138 -139 571 0
-138 139 571 0
-138 -571 694 0
139 -573 -670 0
139 573 -671 0
-139 573 671 0
-139 -573 670 0
-79 -130 140 695 0
-79 140 686 695 0
79 -140 0
-140 -695 0
130 -140 -686 0
78 -137 141 -693 0
-141 693 0
-78 -141 0
137 -141 0
-121 142 -143 -145 -147 0
-142 147 0
121 -142 0
-142 145 0
-142 143 0
77 143 144 0
-77 -143 0
-143 -144 0
89 144 689 0
-144 -689 0
-89 -144 0
128 145 146 0
-130 145 146 0
-145 -146 0
-128 130 -145 0
122 146 686 0
-146 -686 0
-122 -146 0
22 -78 144 147 -569 0
78 -147 0
-144 -147 0
-147 569 0
-22 -147 0
148 149 703 0
-148 -703 0
-148 -149 0
-34 149 569 571 0
34 -149 0
-149 -571 0
-149 -569 0
150 -151 -156 706 -741 0
-150 -706 0
-150 156 0
-150 151 0
-150 741 0
73 -111 -143 151 -152 0
-73 -151 0
-151 152 0
143 -151 0
111 -151 0
122 -145 152 -153 -155 0
-122 -152 0
-152 155 0
-152 153 0
145 -152 0
153 -154 -703 0
153 -154 569 689 0
-153 154 0
-153 -689 703 0
-153 -569 703 0
154 568 -701 -702 0
154 -568 -701 702 0
-154 701 0
-154 -568 -702 0
-154 568 702 0
123 144 155 0
123 155 -569 0
-123 -155 0
-144 -155 569 0
-72 -145 156 157 -159 0
-156 159 0
72 -156 0
145 -156 0
-156 -157 0
-130 157 158 0
130 -157 0
-157 -158 0
-86 158 571 0
-158 -571 0
86 -158 0
123 159 -160 -686 0
-99 123 159 -160 0
-159 160 0
-123 -159 0
99 -159 686 0
144 160 -683 702 0
-160 683 0
-144 -160 0
-160 -702 0
161 -162 -184 722 -740 0
-161 -722 0
-161 184 0
-161 162 0
-161 740 0
-110 162 -163 180 -182 0
-162 182 0
110 -162 0
-162 163 0
-162 -180 0
-151 -156 163 -164 -174 0
-163 174 0
151 -163 0
-163 164 0
156 -163 0
164 -168 171 0
164 165 171 0
-164 -171 0
-164 -165 168 0
165 -166 708 0
165 700 708 0
-165 -708 0
-165 166 -700 0
-129 166 569 0
166 -167 -569 0
-166 167 -569 0
129 -166 569 0
167 677 699 0
-167 -677 0
-167 -699 0
168 -169 -170 0
168 -170 700 0
-168 170 0
-168 169 -700 0
169 -569 700 0
-131 169 569 0
-169 -569 -700 0
131 -169 569 0
-167 170 707 0
-129 170 569 707 0
-170 -707 0
167 -170 -569 0
129 167 -170 0
171 172 709 0
36 171 173 709 0
-171 -709 0
-36 -171 -172 0
-171 -172 -173 0
-36 172 -700 0
172 700 711 0
-172 700 -711 0
36 -172 -700 0
-167 173 710 0
-173 -710 0
167 -173 0
168 174 175 -177 0
-127 174 175 -177 0
-174 177 0
-174 -175 0
127 -168 -174 0
175 176 -567 0
-175 567 0
-175 -176 0
-93 -138 176 569 0
-93 176 -569 -715 0
93 -176 0
-176 -569 715 0
138 -176 569 0
172 177 -178 -709 0
-122 172 177 -178 0
-177 178 0
-172 -177 0
122 -177 709 0
119 178 -179 -566 718 0
119 178 -179 566 -718 0
-178 179 0
-178 566 718 0
-119 -178 0
-178 -566 -718 0
179 -706 -712 -717 0
-179 706 0
-179 712 0
-179 717 0
-176 180 567 0
-113 -176 180 -181 0
176 -180 0
-180 181 -567 0
113 -180 -567 0
120 -168 181 716 0
120 181 709 716 0
-120 -181 0
-181 -716 0
168 -181 -709 0
118 182 -183 -712 0
118 -149 182 -183 0
-182 183 0
-118 -182 0
149 -182 712 0
112 -164 183 0
-112 -183 0
164 -183 0
-182 184 -185 186 718 0
-184 -718 0
-184 -186 0
-184 185 0
182 -184 0
118 -183 185 -719 0
118 -149 -183 185 0
183 -185 0
-118 -185 0
149 -185 719 0
186 -712 719 0
-186 712 0
-186 -719 0
-162 -184 187 188 -192 0
-187 192 0
162 -187 0
184 -187 0
-187 -188 0
-176 188 565 0
-113 -176 188 -189 0
176 -188 0
-188 189 -565 0
113 -188 -565 0
120 189 -190 733 0
120 189 727 733 0
-120 -189 0
-189 -733 0
-189 190 -727 0
190 191 723 725 0
-169 190 191 723 0
-190 -723 0
-190 -191 0
169 -190 -725 0
166 191 -700 0
166 191 -724 0
-166 -191 0
-191 700 724 0
-185 192 -193 0
185 -192 0
-192 193 0
-165 -190 193 -195 0
190 193 194 -195 0
-193 195 0
165 -190 -193 0
190 -193 -194 0
-166 194 726 0
194 725 726 0
-194 -726 0
166 -194 -725 0
195 -196 -197 565 0
-176 195 -196 -197 0
-195 197 0
-195 196 0
176 -195 -565 0
196 -563 725 -729 0
36 196 -563 -725 0
-196 563 0
-36 -196 -725 0
-196 725 729 0
119 197 -198 -199 0
-197 199 0
-197 198 0
-119 -197 0
198 -734 735 -736 739 0
-198 736 0
-198 -739 0
-198 734 0
-198 -735 0
199 -564 -722 -727 -730 0
-199 730 0
-199 564 0
-199 727 0
-199 722 0
200 -223 -754 0
200 201 222 -754 0
-200 754 0
-200 -201 223 0
-200 -222 223 0
201 -202 560 0
201 -217 -560 0
-201 217 -560 0
-201 202 560 0
202 -203 -562 0
202 562 757 0
-202 562 -757 0
-202 203 -562 0
203 204 757 0
203 -204 760 0
-203 -204 -760 0
-203 204 -757 0
204 -205 -212 0
204 -212 761 0
-204 212 0
-204 205 -761 0
205 206 209 0
-205 -206 0
-205 -209 0
117 206 208 -569 0
206 207 208 569 0
-206 -208 0
-206 -207 569 0
-117 -206 -569 0
-78 207 642 0
78 -117 207 0
-78 -207 -642 0
78 117 -207 0
208 563 740 741 0
-208 -563 0
-208 -741 0
-208 -740 0
207 -208 209 -742 0
-208 209 -210 742 0
208 -209 0
-209 210 742 0
-207 -209 -742 0
210 211 -642 0
117 210 -211 0
-117 -210 -211 0
-210 211 642 0
211 -573 -743 0
-211 573 0
-211 743 0
212 213 -216 0
212 759 762 0
212 -216 759 0
212 213 762 0
-212 -213 -759 0
-212 216 -762 0
213 214 -644 0
-213 644 0
-213 -214 0
119 214 215 0
-119 -214 0
-214 -215 0
-78 -208 211 215 0
-208 211 215 742 0
208 -215 0
-211 -215 0
78 -215 -742 0
214 216 592 0
-216 -592 0
-214 -216 0
-202 217 218 0
217 -218 787 0
-217 -218 -787 0
202 -217 218 0
218 220 221 761 0
218 -219 220 221 0
-218 -221 0
-218 -220 0
-218 219 -761 0
-205 219 562 0
-219 -562 0
205 -219 0
220 -562 -762 0
216 220 -762 0
-220 762 0
-216 -220 562 0
221 -562 -759 0
-213 221 -759 0
-221 759 0
213 -221 562 0
222 560 562 758 0
-222 -560 0
-222 -758 0
-222 -562 0
223 -562 762 0
-216 223 560 562 0
223 -560 762 0
-223 -560 -762 0
216 -223 560 562 0
-223 -562 -762 0
224 234 -431 0
201 224 -225 -431 0
-201 224 225 -431 0
-224 431 0
201 -224 225 -234 0
-201 -224 -225 -234 0
225 -228 -820 0
225 226 820 0
-225 -226 820 0
-225 228 -820 0
226 -838 -859 0
226 -227 -859 0
-226 859 0
-226 227 838 0
227 -831 -832 -860 0
-227 831 0
-227 832 0
-227 860 0
226 228 229 0
228 -229 888 0
-226 -228 229 0
-228 -229 -888 0
229 839 889 0
229 -230 839 0
-229 -839 0
-229 230 -889 0
230 231 892 0
230 231 893 0
-230 -231 0
-230 -892 -893 0
231 232 -233 839 889 0
-231 233 0
-231 -232 0
-231 -839 0
-231 -889 0
232 840 849 -896 0
-232 896 0
-232 -849 0
-232 -840 0
233 -890 892 893 0
-233 890 0
-233 -893 0
-233 -892 0
234 235 -236 -238 -422 0
234 -235 236 -238 -422 0
-234 422 0
-234 235 236 0
-234 238 0
-234 -235 -236 0
235 -560 -761 0
219 235 -761 0
219 235 560 562 0
-235 -560 761 0
-219 -235 560 0
-235 -562 761 0
236 -237 -820 0
236 820 889 0
-236 820 -889 0
-236 237 -820 0
-230 237 889 0
-230 237 839 0
230 -237 0
-237 -839 -889 0
238 239 242 262 -273 0
238 -239 -242 262 -273 0
-238 -262 0
-238 239 -242 0
-238 273 0
-238 -239 242 0
239 -240 907 0
239 899 907 0
-239 -907 0
-239 240 -899 0
240 -241 820 0
-240 -820 0
-240 241 0
241 -857 876 0
241 857 875 0
-241 857 -875 0
-241 -857 -876 0
242 243 803 0
242 795 803 0
-242 -803 0
-242 -243 -795 0
243 244 256 0
243 244 560 0
-243 -244 0
-243 -256 -560 0
244 -245 560 0
-244 -560 0
-244 245 0
245 249 -562 0
245 -246 249 0
-245 -249 0
-245 246 562 0
-166 246 247 562 0
-208 246 247 562 0
-246 -562 0
-246 -247 0
166 208 -246 0
129 -208 247 248 0
-208 247 248 742 0
208 -247 0
-247 -248 0
-129 -247 -742 0
-28 211 248 742 0
-248 -742 0
28 -248 0
-211 -248 0
246 249 -250 0
-246 -249 0
-249 250 0
250 251 -725 0
250 251 -770 0
250 251 563 0
-250 -251 0
-250 -563 725 770 0
251 -253 563 740 0
251 -252 563 -740 0
-251 -563 0
-251 252 -740 0
-251 253 740 0
252 700 724 0
-252 -700 0
-252 -724 0
-167 253 -741 0
253 -255 741 0
253 -254 741 0
167 -253 -741 0
-253 254 255 741 0
-60 254 742 743 0
60 -254 0
-254 -743 0
-254 -742 0
-125 255 -742 0
-255 742 0
125 -255 0
256 257 794 0
-256 -794 0
-256 -257 0
257 258 -771 0
257 258 563 0
-257 -258 0
-257 -563 771 0
258 -259 563 740 0
258 563 725 -740 0
-258 -563 0
-258 -725 -740 0
-258 259 740 0
259 700 -741 0
259 -261 741 0
259 -260 741 0
-259 -700 -741 0
-259 260 261 741 0
260 652 742 -743 0
-260 743 0
-260 -742 0
-260 -652 0
261 677 -742 0
-261 -677 0
-261 742 0
262 263 -268 0
262 -263 268 0
-262 -263 -268 0
-262 263 268 0
263 -267 560 0
263 -560 795 0
263 -264 560 0
-263 -560 -795 0
-263 264 267 560 0
-169 264 265 562 0
-208 264 265 562 0
-264 -562 0
-264 -265 0
169 208 -264 0
131 -208 265 -742 0
-208 265 -266 742 0
208 -265 0
-265 266 742 0
-131 -265 -742 0
-211 266 -652 0
30 211 266 0
-30 211 -266 0
-211 -266 652 0
257 267 -562 0
-267 562 0
-257 -267 0
268 269 820 0
268 269 899 0
-268 -269 0
-268 -820 -899 0
269 270 820 0
-269 -820 0
-269 -270 0
270 -272 846 0
270 -272 -857 0
270 271 -272 0
-270 272 0
-270 -271 -846 857 0
271 876 878 879 -880 0
-271 880 0
-271 -879 0
-271 -876 0
-271 -878 0
272 878 879 0
272 857 876 0
272 876 879 0
272 857 878 0
-272 -876 -878 0
-272 -857 -879 0
240 -243 273 -274 -403 0
-240 243 273 -274 -403 0
-273 403 0
240 243 -273 0
-273 274 0
-240 -243 -273 0
225 274 -281 -308 0
274 275 -281 -308 0
-274 308 0
-274 281 0
-225 -274 -275 0
275 277 908 917 0
275 -276 277 917 0
-275 -277 0
-275 -917 0
-275 276 -908 0
-240 269 276 906 0
-240 276 899 906 0
240 -276 0
-276 -906 0
-269 -276 -899 0
277 -820 -897 0
277 278 820 0
-277 -820 897 0
-277 -278 820 0
278 279 828 0
278 279 850 851 0
-278 -279 0
-278 -828 -851 0
-278 -828 -850 0
279 280 829 -850 -851 0
-279 -829 0
-279 -280 0
-279 851 0
-279 850 0
280 -852 -853 0
-280 852 0
-280 853 0
223 281 -282 307 0
-223 281 -282 -307 0
-281 282 0
-223 -281 307 0
223 -281 -307 0
282 291 -293 -820 0
282 -283 -291 -293 820 0
-282 -291 -820 0
-282 291 820 0
-282 293 0
-282 283 -291 0
283 284 -288 0
283 284 830 0
-283 -284 0
-283 288 -830 0
284 -285 286 0
-284 285 0
-284 -286 0
-241 285 881 0
-285 -881 0
241 -285 0
-241 -270 286 874 0
-270 286 -287 874 0
-286 -874 0
270 -286 0
241 -286 287 0
287 877 878 0
287 -857 878 0
287 845 857 -878 0
-287 -845 -878 0
-287 -857 -878 0
-287 857 -877 878 0
288 -289 -290 0
-288 289 0
-288 290 0
289 560 562 0
-289 -560 0
-289 -562 0
214 290 -583 0
-290 583 0
-214 -290 0
-289 291 292 0
289 -291 0
-291 -292 0
-208 215 292 0
119 215 292 0
-215 -292 0
-119 208 -292 0
293 294 846 0
285 286 293 294 0
-293 -294 0
-286 -293 -846 0
-285 -293 -846 0
294 295 -301 0
-294 -295 0
-294 301 0
295 -297 851 0
295 296 -297 853 0
-295 297 0
-295 -296 -851 0
-295 -851 -853 0
296 829 -863 0
-296 -829 0
-296 863 0
297 298 299 -300 0
297 -298 -300 829 0
-297 300 0
-297 298 -299 0
-297 -298 -829 0
298 -830 -864 0
-298 830 0
-298 864 0
299 -853 -863 0
-299 853 0
-299 863 0
300 820 852 0
-300 -820 0
-300 -852 0
214 292 301 302 -303 0
-301 303 0
-301 -302 0
-214 -301 0
-292 -301 0
302 -604 -606 0
302 582 -604 -616 0
-302 604 0
-302 -582 606 0
-302 606 616 0
303 304 305 -306 0
303 -304 -306 582 0
-303 306 0
-303 304 -305 0
-303 -304 -582 0
304 -583 -617 0
-304 583 0
-304 617 0
305 -606 -616 0
-305 606 0
-305 616 0
-289 306 605 0
-306 -605 0
289 -306 0
307 820 839 0
-307 -820 0
-307 -839 0
308 -309 -325 -328 -395 0
-308 395 0
-308 309 0
-308 328 0
-308 325 0
309 -310 322 323 -324 0
309 -310 322 -323 324 0
-309 -322 0
-309 323 324 0
-309 310 0
-309 -323 -324 0
310 -311 -318 0
-310 311 0
-310 318 0
300 311 312 316 317 0
-300 311 312 -316 317 0
-311 -312 0
-300 -311 316 0
-311 -317 0
300 -311 -316 0
312 -313 -315 0
-312 313 0
-312 315 0
119 208 313 0
-208 313 -314 0
208 313 -588 0
-208 -313 314 0
-119 208 -313 588 0
89 314 -742 0
314 -588 742 0
-211 314 742 0
-89 -314 -742 0
211 -314 588 742 0
315 820 835 0
-315 -820 0
-315 -835 0
214 -289 316 605 0
289 -316 0
-214 -316 0
-316 -605 0
237 317 761 0
-317 -761 0
-237 -317 0
284 318 319 320 321 0
284 318 -319 -320 321 0
-318 -321 0
-318 -319 320 0
-284 -318 0
-318 319 -320 0
319 820 -919 0
-319 -820 0
-319 919 0
214 -289 320 -813 0
-320 813 0
-214 -320 0
289 -320 0
-237 321 -761 0
-321 761 0
237 -321 0
-256 322 805 0
-322 -805 0
256 -322 0
-117 323 818 0
-323 -818 0
117 -323 0
324 -893 -925 0
324 893 -924 925 0
-324 924 925 0
-324 893 -925 0
-324 -893 925 0
239 325 326 -327 0
-276 325 326 -327 0
-325 327 0
-325 -326 0
-239 276 -325 0
-288 326 -820 0
-288 326 830 0
288 -326 0
-326 820 -830 0
-285 295 327 0
276 -301 327 0
276 295 327 0
-285 -301 327 0
-276 285 -327 0
-295 301 -327 0
328 -329 -369 -384 -389 0
-328 389 0
-328 329 0
-328 384 0
-328 369 0
329 -330 -342 -347 -352 0
-329 352 0
-329 330 0
-329 347 0
-329 342 0
330 -331 -337 -340 -341 0
-330 341 0
-330 331 0
-330 340 0
-330 337 0
331 -332 -334 -335 -336 0
-331 336 0
-331 332 0
-331 335 0
-331 334 0
332 333 -885 0
332 333 835 0
-332 -333 0
-332 -835 885 0
333 840 849 0
-333 -840 0
-333 -849 0
334 817 867 0
334 -914 -923 0
334 867 -923 0
334 817 -914 0
-334 -867 914 0
-334 -817 923 0
335 -766 773 815 -820 0
-335 820 0
-335 -815 0
-335 766 0
-335 -773 0
336 -749 -752 -755 -762 0
-336 762 0
-336 749 0
-336 755 0
-336 752 0
337 338 339 811 917 0
337 338 339 -811 -917 0
-337 -338 0
-337 -811 917 0
-337 -339 0
-337 811 -917 0
338 -807 910 0
-338 807 0
-338 -910 0
339 -748 913 0
-339 748 0
-339 -913 0
340 -804 848 0
340 -601 908 0
340 -601 -804 0
340 848 908 0
-340 804 -908 0
-340 601 -848 0
341 -649 -914 0
341 669 896 0
341 896 -914 0
341 -649 669 0
-341 -669 914 0
-341 649 -896 0
342 -343 346 -842 0
342 -343 345 346 0
-342 343 0
-342 -346 0
-342 -345 842 0
343 -344 829 0
343 -344 830 0
343 -344 -828 0
-343 344 0
-343 828 -829 -830 0
344 -820 -915 0
344 820 -916 0
-344 820 916 0
-344 -820 915 0
345 831 -839 0
-345 -831 0
-345 839 0
346 843 -844 -845 0
-346 845 0
-346 844 0
-346 -843 0
347 -348 -349 -350 351 0
-347 350 0
-347 -351 0
-347 348 0
-347 349 0
348 -900 901 -905 -913 0
-348 913 0
-348 900 0
-348 905 0
-348 -901 0
349 -848 -868 869 -873 0
-349 873 0
-349 848 0
-349 868 0
-349 -869 0
350 -753 -754 759 0
-350 753 0
-350 754 0
-350 -759 0
351 856 857 0
351 844 -857 0
-351 -856 857 0
-351 -844 -857 0
352 353 354 -355 -358 0
-352 -353 0
-352 358 0
-352 355 0
-352 -354 0
351 353 882 0
-353 -882 0
-351 -353 0
354 -820 902 0
354 -885 902 0
354 820 -835 885 0
-354 -820 -902 0
-354 -885 -902 0
-354 820 835 885 0
355 356 -820 0
355 356 357 0
355 357 820 866 0
-355 -357 820 0
-355 -356 -820 0
-355 -356 -866 0
-289 356 750 0
-356 -750 0
289 -356 0
357 -865 866 -867 0
-357 865 0
-357 -866 0
-357 867 0
358 -359 -364 -367 -368 0
-358 368 0
-358 359 0
-358 367 0
-358 364 0
359 -360 -363 751 867 0
359 -360 -363 -751 -867 0
-359 363 0
-359 -751 867 0
-359 360 0
-359 751 -867 0
360 -361 362 -908 0
360 -361 362 804 0
-360 361 0
-360 -362 0
-360 -804 908 0
361 848 861 0
361 -870 -882 0
361 861 -882 0
361 848 -870 0
-361 -861 870 0
-361 -848 882 0
362 669 -914 0
-362 -669 0
-362 914 0
363 -807 -896 0
363 649 910 0
363 649 -807 0
363 -896 910 0
-363 -649 896 0
-363 807 -910 0
364 365 366 819 -901 0
364 365 366 -819 901 0
-364 -365 0
-364 819 901 0
-364 -366 0
-364 -819 -901 0
365 817 -923 0
-365 -817 0
-365 923 0
366 821 869 0
-366 -821 0
-366 -869 0
367 -748 835 0
367 -861 913 0
367 835 913 0
367 -748 -861 0
-367 -835 861 0
-367 748 -913 0
368 601 821 0
368 -848 869 0
368 821 -848 0
368 601 869 0
-368 -601 848 0
-368 -821 -869 0
369 -370 -372 -375 -379 0
-369 379 0
-369 370 0
-369 375 0
-369 372 0
370 371 867 0
370 371 -866 0
370 371 865 0
-370 -371 0
-370 -865 866 -867 0
-278 371 -830 0
-371 830 0
278 -371 0
372 -373 -374 -910 0
-315 372 373 374 0
372 373 374 -910 0
-315 372 -373 -374 0
-372 373 -374 0
-372 -373 374 0
315 -372 910 0
373 899 922 0
-373 -899 0
-373 -922 0
374 795 816 0
-374 -795 0
-374 -816 0
375 376 -377 -902 0
-315 375 376 -377 0
-375 377 0
-375 -376 0
315 -375 902 0
376 831 840 0
376 -831 832 0
-376 -831 -832 0
-376 831 -840 0
377 -378 839 0
377 -378 -838 0
377 -378 -831 0
-377 378 0
-377 831 838 -839 0
378 -843 847 0
378 -846 848 0
378 -843 -846 0
378 847 848 0
-378 843 -848 0
-378 846 -847 0
379 823 835 0
379 -380 -382 0
379 -382 835 0
379 -380 823 0
-379 380 -835 0
-379 382 -823 0
380 -381 -836 -854 0
380 -381 -854 -855 0
-380 381 0
-380 854 0
-380 836 855 0
381 -834 837 0
381 833 -836 0
381 -834 -836 0
381 833 837 0
-381 836 -837 0
-381 -833 834 0
382 -825 -826 0
382 825 827 0
382 383 -825 0
-382 825 -827 0
-382 -383 -825 826 0
383 -822 824 0
-383 822 0
-383 -824 0
-344 384 385 388 0
384 385 386 388 0
-384 -388 0
-384 -385 0
344 -384 -386 0
36 385 882 0
-36 351 385 0
351 385 908 0
36 -351 385 0
-36 -351 -385 0
36 351 -385 -882 -908 0
386 -560 -810 0
386 -387 560 0
-386 387 560 0
-386 -560 810 0
387 562 -764 0
387 -562 -789 0
-387 -562 789 0
-387 562 764 0
-353 388 -883 0
287 -353 388 0
353 -388 0
-287 -388 883 0
389 -390 -394 839 0
226 389 -390 -394 0
-389 394 0
-389 390 0
-226 -389 -839 0
390 -391 -820 0
390 -391 -866 0
-356 390 -391 0
-390 391 0
356 -390 820 866 0
391 392 858 0
391 392 -843 0
-351 391 392 0
-391 -392 0
351 -391 843 -858 0
392 -393 -839 -840 841 0
-392 393 0
-392 839 0
-392 840 0
-392 -841 0
393 -831 -838 0
-393 831 0
-393 838 0
371 -386 394 0
344 371 394 0
-371 -394 0
-344 386 -394 0
-315 395 -397 0
395 396 -397 0
-395 397 0
315 -395 -396 0
-289 313 396 0
289 -396 0
-313 -396 0
222 397 398 399 402 0
-222 397 -398 399 402 0
-397 -399 0
-222 -397 398 0
-397 -402 0
222 -397 -398 0
398 820 921 0
227 398 820 842 0
-398 -820 0
-398 -842 -921 0
-227 -398 -921 0
399 400 -401 0
399 400 908 0
-399 -400 0
-399 401 -908 0
-351 400 -899 0
400 899 909 0
-400 899 -909 0
351 -400 -899 0
-36 401 -795 0
401 795 806 0
-401 795 -806 0
36 -401 -795 0
-400 401 402 0
-400 402 -908 913 0
400 -402 0
-401 -402 908 0
-401 -402 -913 0
403 -404 -407 0
403 -407 820 839 0
-403 407 0
-403 404 -839 0
-403 404 -820 0
226 404 820 0
-228 404 -405 -820 0
-226 -404 820 0
-404 405 -820 0
228 -404 -820 0
284 353 -370 405 406 0
370 -405 0
-353 -405 0
-284 -405 0
-405 -406 0
406 -835 885 0
-406 835 0
-406 -885 0
407 408 -416 -417 0
407 -408 416 -417 0
-407 417 0
-407 408 416 0
-407 -408 -416 0
289 408 751 0
-289 408 409 414 0
-289 -408 -409 0
289 -408 -751 0
-289 -408 -414 0
409 -411 -814 0
-208 409 -410 -814 0
-409 814 0
208 -409 411 0
-409 410 411 0
410 742 743 0
-410 -742 0
-410 -743 0
411 413 571 573 0
411 -412 413 573 0
-411 -413 0
-411 -573 0
-411 412 -571 0
-208 412 742 0
-412 -742 0
208 -412 0
208 413 -569 0
-413 569 0
-208 -413 0
-211 414 -620 0
414 -415 -620 0
-413 414 -620 0
-414 620 0
211 413 -414 415 0
78 208 415 0
78 415 -742 0
-78 -415 0
-208 -415 742 0
416 -820 -867 0
416 820 -920 0
-416 820 920 0
-416 -820 867 0
417 418 419 -420 -421 0
417 -418 -419 -420 -421 0
417 418 419 420 421 0
417 -418 -419 420 421 0
-417 418 -419 0
-417 -418 419 0
-417 420 -421 0
-417 -420 421 0
418 820 -891 0
-418 -820 0
-418 891 0
-213 -289 419 0
289 419 -759 0
289 -419 759 0
213 -289 -419 0
289 420 749 0
-289 292 420 618 0
289 -420 -749 0
-289 -420 -618 0
-289 -292 -420 0
421 820 865 0
-421 -820 0
-421 -865 0
-276 277 422 423 -429 0
-276 -277 422 -423 -429 0
276 277 422 423 429 0
276 -277 422 -423 429 0
276 -422 -429 0
-276 -422 429 0
-277 -422 423 0
277 -422 -423 0
423 -560 -792 0
423 -424 560 0
-423 424 560 0
-423 -560 792 0
424 425 -768 0
424 425 562 0
-424 -425 0
-424 -562 768 0
425 426 562 0
-425 -562 0
-425 -426 0
-208 426 -427 0
-120 208 426 0
-208 -426 427 0
120 208 -426 0
79 427 -742 0
427 -428 742 0
-79 -427 -742 0
-427 428 742 0
-211 428 -650 0
23 211 428 0
-23 211 -428 0
-211 -428 650 0
429 430 795 802 0
-263 429 430 802 0
-429 -430 0
-429 -802 0
263 -429 -795 0
244 256 430 0
-244 -430 0
-256 -430 0
431 433 -434 0
201 431 432 -434 0
-431 434 0
-431 -432 -433 0
-201 -431 -433 0
432 752 753 766 0
-432 -752 0
-432 -766 0
-432 -753 0
423 -429 433 811 0
423 433 804 811 0
-423 -433 0
-433 -811 0
429 -433 -804 0
-201 434 -435 549 0
434 -435 548 549 0
-434 435 0
-434 -549 0
201 -434 -548 0
435 -436 437 -495 0
435 437 -493 -495 0
-435 495 0
-435 -437 0
-435 436 493 0
436 -562 762 0
-216 436 562 0
-436 -562 -762 0
216 -436 562 0
437 464 -562 0
437 438 440 464 0
-437 -464 0
-437 -438 562 0
-437 -440 562 0
292 438 763 767 0
-292 438 439 763 -767 0
292 -438 -767 0
-292 -438 767 0
-438 -763 0
-438 -439 -767 0
439 -669 -748 -764 0
439 -748 751 -764 0
-439 764 0
-439 748 0
-439 669 -751 0
-292 -439 440 441 -763 0
439 -440 0
-440 -441 0
-440 763 0
292 -440 0
426 441 442 -463 0
426 441 -447 -463 0
-426 -441 0
-441 463 0
-441 -442 447 0
442 -563 -727 0
442 -443 563 0
-442 443 563 0
-442 -563 727 0
443 -709 -740 0
443 -444 740 0
-443 709 -740 0
-443 444 740 0
444 -686 -741 0
444 -445 741 0
-444 686 -741 0
-444 445 741 0
445 -661 -742 0
445 -446 742 0
-445 661 -742 0
-445 446 742 0
446 -635 -743 0
446 -596 743 0
-446 596 743 0
-446 635 -743 0
-190 447 -563 0
447 -448 563 0
-447 448 563 0
190 -447 -563 0
-168 448 -740 0
448 -455 740 0
448 -449 740 0
168 -448 -740 0
-448 449 455 740 0
449 454 569 -741 0
449 -450 454 -741 0
-449 741 0
-449 -454 0
-449 450 -569 0
-167 450 451 0
-124 450 451 700 0
-450 -451 0
167 -450 -700 0
124 167 -450 0
451 -452 -698 0
-451 698 0
-451 452 0
-131 452 453 0
452 453 700 0
-452 -453 0
131 -452 -700 0
129 167 453 0
-129 -453 0
-167 -453 0
130 452 454 0
130 454 569 0
-130 -454 0
-452 -454 -569 0
455 -456 741 0
455 460 -462 741 0
-455 -741 0
-455 456 462 0
-455 456 -460 0
456 457 600 742 0
456 457 742 -743 0
-456 -457 0
-456 -742 0
-456 -600 743 0
457 458 -573 -743 0
59 457 458 -743 0
-457 743 0
-457 -458 0
-59 -457 573 0
-28 -67 458 -459 0
-59 -67 458 -459 0
-458 459 0
67 -458 0
28 59 -458 0
28 459 652 0
459 -573 651 652 0
-459 -652 0
-28 -459 573 0
-28 -459 -651 0
125 460 -571 0
460 461 -571 -675 0
-460 571 0
-125 -460 675 0
-125 -460 -461 0
132 461 -677 0
-461 677 0
-132 -461 0
-83 462 -742 0
461 462 -571 -742 0
-462 742 0
83 -461 -462 0
83 -462 571 0
-432 463 765 0
463 757 765 0
-463 -765 0
432 -463 -757 0
-203 464 465 472 -483 0
-464 483 0
-464 -472 0
203 -464 0
-464 -465 0
447 465 466 0
-447 -465 0
-465 -466 0
194 466 -563 0
466 -467 563 0
-194 -466 -563 0
-466 467 563 0
165 467 -740 0
467 -468 740 0
-165 -467 -740 0
-467 468 740 0
127 468 -741 0
468 469 471 741 0
-127 -468 -741 0
-468 -471 741 0
-468 -469 741 0
469 -470 742 -743 0
469 599 742 743 0
-469 -742 0
-469 -599 743 0
-469 470 -743 0
-85 470 634 0
-470 -634 0
85 -470 0
-158 471 -742 0
-471 742 0
158 -471 0
442 472 473 0
36 442 472 478 0
-442 -472 0
-36 -472 -473 0
-472 -473 -478 0
196 473 474 0
-196 -473 0
-473 -474 0
474 -475 563 740 0
172 474 563 -740 0
-474 -563 0
-172 -474 -740 0
-474 475 740 0
122 475 -741 0
475 -476 741 0
-122 -475 -741 0
-475 476 741 0
99 476 -742 0
476 -477 742 0
-99 -476 -742 0
-476 477 742 0
36 477 -743 0
477 -601 743 0
-36 -477 -743 0
-477 601 743 0
478 479 563 0
-252 478 479 728 0
-478 -479 0
252 -478 -563 0
-478 -563 -728 0
479 -480 563 740 0
173 479 563 -740 0
-479 -563 0
-173 -479 -740 0
-479 480 740 0
480 481 741 0
124 480 481 0
-480 -481 0
-124 -480 -741 0
481 -482 611 743 0
-67 481 -482 -743 0
-481 482 0
67 -481 -743 0
-481 -611 743 0
482 741 742 0
-482 -741 0
-482 -742 0
292 483 -484 486 -489 0
-483 484 0
-483 -486 0
-292 -483 0
-483 489 0
484 485 -745 0
313 484 485 0
-484 -485 0
-313 -484 745 0
485 752 -753 0
-485 -752 0
-485 753 0
486 487 750 -751 0
486 487 -488 -750 0
-486 -487 0
-486 488 -750 0
-486 750 751 0
292 487 618 0
-487 -618 0
-292 -487 0
488 669 -748 749 0
-488 -669 0
-488 748 0
-488 -749 0
489 490 -491 492 -562 0
-489 491 0
-489 -492 0
-489 562 0
-489 -490 0
490 754 755 0
-490 -754 0
-490 -755 0
490 491 -752 -753 0
490 491 753 -754 0
-490 -491 0
-491 752 -753 0
-491 753 754 0
492 753 -762 0
-492 -753 0
-492 762 0
-202 493 -753 0
350 493 -753 0
202 350 493 494 0
-202 -493 753 0
202 -350 -493 0
-493 -494 753 0
494 562 758 0
-494 -562 0
-494 -758 0
-216 495 -499 0
495 496 -499 -753 0
-495 499 0
216 -495 -496 0
216 -495 753 0
-208 496 -497 0
113 208 496 0
-208 -496 497 0
-113 208 -496 0
-74 497 -742 0
497 -498 742 0
-497 498 742 0
74 -497 -742 0
-11 498 743 0
10 498 -743 0
-10 -498 -743 0
11 -498 743 0
465 499 -500 -544 -546 0
-465 -499 0
-499 546 0
-499 544 0
-499 500 0
500 501 -504 -541 0
500 -503 -504 -541 0
-500 541 0
-500 504 0
-500 -501 503 0
501 -502 560 0
-501 -560 0
-501 502 0
-245 502 780 0
257 502 780 0
-502 -780 0
245 -257 -502 0
249 -264 503 779 0
249 257 503 779 0
-503 -779 0
-249 -503 0
-257 264 -503 0
290 504 505 -507 0
-426 504 505 -507 0
-504 507 0
-504 -505 0
-290 426 -504 0
505 506 804 0
36 322 505 804 0
-505 -804 0
-36 -505 -506 0
-322 -505 -506 0
-36 -257 506 0
257 506 783 0
257 -506 -783 0
36 -257 -506 0
507 508 -515 -531 -533 0
-507 -508 0
-507 533 0
-507 531 0
-507 515 0
396 508 -514 0
396 508 -509 0
396 508 798 0
-396 -508 0
-508 509 514 -798 0
-313 509 510 736 0
-313 509 510 563 0
313 -509 0
-509 -510 0
-509 -563 -736 0
510 511 563 -719 0
510 511 563 740 0
-510 -563 0
-510 -511 0
-510 719 -740 0
511 -512 740 741 0
511 703 740 -741 0
-511 -740 0
-511 512 741 0
-511 -703 -741 0
512 680 -742 0
512 -513 742 0
-512 -680 -742 0
-512 513 742 0
513 623 743 0
513 655 -743 0
-513 -655 -743 0
-513 -623 743 0
514 560 784 0
-514 -560 0
-514 -784 0
-484 515 -517 -775 0
-484 515 -516 -517 0
-515 517 0
484 -515 0
-515 516 775 0
313 516 562 0
-516 -562 0
-313 -516 0
-292 517 -518 0
22 289 517 -518 0
-517 518 0
-289 292 -517 0
-22 292 -517 0
518 -519 -526 -804 0
-401 518 -519 -526 0
-518 526 0
-518 519 0
401 -518 804 0
519 520 -521 -559 797 0
519 520 -521 559 -797 0
-519 521 0
-519 559 797 0
-519 -520 0
-519 -559 -797 0
520 753 754 0
-520 -753 0
-520 -754 0
521 -522 -524 -753 -754 0
-521 524 0
-521 753 0
-521 522 0
-521 754 0
522 523 561 0
522 523 774 0
-522 -523 0
-522 -561 -774 0
523 669 -751 0
-523 -669 0
-523 751 0
485 524 -525 -561 744 0
-524 525 0
-485 -524 0
-524 561 0
-524 -744 0
525 -748 -752 -755 -772 0
-525 772 0
-525 748 0
-525 755 0
-525 752 0
-386 526 -527 529 530 0
-526 527 0
-526 -530 0
386 -526 0
-526 -529 0
527 -528 -796 797 -801 0
-527 528 0
-527 796 0
-527 801 0
-527 -797 0
528 773 774 -778 -781 0
-528 -773 0
-528 781 0
-528 778 0
-528 -774 0
529 -560 798 0
529 -784 798 0
-529 -798 0
-529 560 784 0
530 -562 775 0
530 -745 775 0
-530 -775 0
-530 562 745 0
-396 -442 531 0
-442 531 532 -807 0
442 -531 0
396 -531 -532 0
396 -531 807 0
516 532 784 0
-532 -784 0
-516 -532 0
473 506 533 -534 540 0
-473 -533 0
-533 -540 0
-533 534 0
-506 -533 0
534 -535 -536 -538 0
534 -535 -537 -538 0
-534 538 0
-534 535 0
-534 536 537 0
485 486 535 0
485 535 -562 0
-485 -535 0
-486 -535 562 0
536 -757 -758 0
-536 757 0
-536 758 0
292 537 756 0
12 292 537 595 0
-292 -537 0
-12 -537 -756 0
-537 -595 -756 0
-216 486 538 0
486 538 -539 0
-486 -538 0
216 -538 539 0
350 539 -753 0
539 -753 757 0
350 539 -757 -758 0
-539 753 757 0
-350 -539 -757 0
-539 753 758 0
356 420 -488 540 0
-356 420 540 -751 0
-420 -540 0
356 488 -540 0
-356 -540 751 0
425 541 -542 0
290 541 -542 0
-541 542 0
-290 -425 -541 0
490 542 -781 0
490 -506 542 543 0
-490 -542 0
-542 -543 781 0
506 -542 781 0
36 543 -782 0
36 -250 543 0
-36 -543 0
250 -543 782 0
503 544 -545 0
466 544 -545 562 0
-544 545 0
-466 -503 -544 0
-503 -544 -562 0
-503 -542 545 0
502 -542 545 0
542 -545 0
-502 503 -545 0
242 429 546 547 0
-429 -501 546 547 0
-546 -547 0
-429 501 -546 0
-242 429 -546 0
-288 423 547 0
288 -547 0
-423 -547 0
223 -350 548 0
-223 -548 0
350 -548 0
545 549 553 0
549 550 553 0
217 549 553 0
-549 -553 0
-217 -545 -549 -550 0
532 -535 550 -551 -552 0
-532 -550 0
-550 552 0
-550 551 0
535 -550 0
292 551 562 0
-551 -562 0
-292 -551 0
-491 552 -560 -753 0
-491 552 -560 762 0
491 -552 0
-552 560 0
-552 753 -762 0
553 554 -558 560 0
553 -554 -556 560 0
-553 -560 0
-553 -554 556 0
-553 554 558 0
-387 551 554 -555 0
387 -554 0
-554 555 0
-551 -554 0
555 -669 -748 0
555 -748 751 0
-555 748 0
-555 669 -751 0
556 557 -788 0
202 432 556 -788 0
-556 788 0
-202 -556 -557 0
-432 -556 -557 0
424 -503 557 790 0
424 557 781 790 0
-424 -557 0
-557 -790 0
503 -557 -781 0
551 558 788 -791 0
-551 558 788 791 0
-558 -788 0
-551 -558 -791 0
551 -558 791 0
1 2 0
-1 -2 0
926 0

